p edge 67 83
e 1 2
e 2 12
e 2 19
e 3 4
e 3 5
e 4 14
e 4 51
e 4 19
e 4 64
e 5 35
e 5 67
e 6 7
e 6 8
e 6 9
e 6 10
e 6 11
e 9 65
e 10 63
e 10 65
e 11 66
e 12 13
e 12 14
e 12 15
e 12 16
e 13 17
e 15 25
e 15 26
e 16 20
e 16 53
e 17 26
e 18 19
e 19 52
e 21 22
e 21 23
e 21 24
e 22 27
e 23 49
e 24 37
e 24 38
e 24 54
e 25 29
e 25 30
e 26 29
e 27 28
e 27 31
e 30 31
e 30 37
e 30 50
e 32 33
e 32 34
e 32 35
e 33 36
e 33 37
e 33 38
e 34 43
e 35 61
e 36 55
e 37 54
e 38 56
e 39 40
e 39 41
e 40 42
e 41 60
e 42 43
e 44 45
e 44 46
e 45 48
e 46 47
e 46 55
e 48 56
e 50 54
e 51 52
e 51 53
e 52 53
e 57 58
e 57 59
e 58 61
e 59 60
e 60 62
e 62 67
e 62 65
e 63 64
e 64 66
l 67
